NAME : S-G-100-1.2622.tour
COMMENT : Length = 2622
COMMENT : Found by LKH [Keld Helsgaun] Thu May 17 23:18:19 2018
TYPE : TOUR
DIMENSION : 31
TOUR_SECTION
1
16
11
6
19
26
25
27
14
9
13
20
8
15
4
30
29
18
23
24
22
17
21
5
2
12
31
28
10
7
3
-1
EOF
